c Generated after 2 tries
c Graph with 200 nodes and 700 edges, Max edges:19900
c generated from an undirected graph
c to solve unweighted MaxCut
p cnf 200 1400
1 15 0
-1 -15 0
1 45 0
-1 -45 0
1 72 0
-1 -72 0
1 76 0
-1 -76 0
1 83 0
-1 -83 0
1 93 0
-1 -93 0
1 98 0
-1 -98 0
1 129 0
-1 -129 0
2 17 0
-2 -17 0
2 63 0
-2 -63 0
2 150 0
-2 -150 0
2 187 0
-2 -187 0
2 190 0
-2 -190 0
2 199 0
-2 -199 0
3 6 0
-3 -6 0
3 45 0
-3 -45 0
3 58 0
-3 -58 0
3 61 0
-3 -61 0
3 91 0
-3 -91 0
3 99 0
-3 -99 0
3 137 0
-3 -137 0
3 181 0
-3 -181 0
4 9 0
-4 -9 0
4 28 0
-4 -28 0
4 112 0
-4 -112 0
4 137 0
-4 -137 0
4 164 0
-4 -164 0
5 10 0
-5 -10 0
5 34 0
-5 -34 0
5 46 0
-5 -46 0
5 65 0
-5 -65 0
5 68 0
-5 -68 0
5 83 0
-5 -83 0
5 95 0
-5 -95 0
5 97 0
-5 -97 0
5 111 0
-5 -111 0
5 175 0
-5 -175 0
5 195 0
-5 -195 0
6 51 0
-6 -51 0
6 113 0
-6 -113 0
7 47 0
-7 -47 0
7 74 0
-7 -74 0
7 76 0
-7 -76 0
7 90 0
-7 -90 0
7 91 0
-7 -91 0
7 103 0
-7 -103 0
7 139 0
-7 -139 0
7 185 0
-7 -185 0
7 188 0
-7 -188 0
8 33 0
-8 -33 0
8 60 0
-8 -60 0
8 61 0
-8 -61 0
8 70 0
-8 -70 0
8 96 0
-8 -96 0
8 102 0
-8 -102 0
8 121 0
-8 -121 0
8 179 0
-8 -179 0
8 200 0
-8 -200 0
9 22 0
-9 -22 0
9 41 0
-9 -41 0
9 45 0
-9 -45 0
9 46 0
-9 -46 0
9 56 0
-9 -56 0
9 74 0
-9 -74 0
9 77 0
-9 -77 0
9 111 0
-9 -111 0
9 128 0
-9 -128 0
9 143 0
-9 -143 0
9 180 0
-9 -180 0
9 195 0
-9 -195 0
10 23 0
-10 -23 0
10 34 0
-10 -34 0
10 62 0
-10 -62 0
10 75 0
-10 -75 0
10 115 0
-10 -115 0
10 117 0
-10 -117 0
10 197 0
-10 -197 0
11 21 0
-11 -21 0
11 44 0
-11 -44 0
11 59 0
-11 -59 0
11 134 0
-11 -134 0
11 136 0
-11 -136 0
12 16 0
-12 -16 0
12 51 0
-12 -51 0
12 78 0
-12 -78 0
12 88 0
-12 -88 0
12 96 0
-12 -96 0
12 137 0
-12 -137 0
12 149 0
-12 -149 0
12 156 0
-12 -156 0
12 178 0
-12 -178 0
13 36 0
-13 -36 0
13 47 0
-13 -47 0
13 55 0
-13 -55 0
13 92 0
-13 -92 0
13 97 0
-13 -97 0
13 120 0
-13 -120 0
14 19 0
-14 -19 0
14 65 0
-14 -65 0
14 70 0
-14 -70 0
14 112 0
-14 -112 0
14 149 0
-14 -149 0
15 40 0
-15 -40 0
15 59 0
-15 -59 0
15 74 0
-15 -74 0
15 137 0
-15 -137 0
15 153 0
-15 -153 0
15 195 0
-15 -195 0
16 37 0
-16 -37 0
16 78 0
-16 -78 0
16 91 0
-16 -91 0
16 93 0
-16 -93 0
16 109 0
-16 -109 0
16 137 0
-16 -137 0
17 23 0
-17 -23 0
17 44 0
-17 -44 0
17 70 0
-17 -70 0
17 88 0
-17 -88 0
17 130 0
-17 -130 0
17 145 0
-17 -145 0
17 149 0
-17 -149 0
18 153 0
-18 -153 0
18 175 0
-18 -175 0
19 51 0
-19 -51 0
19 99 0
-19 -99 0
19 150 0
-19 -150 0
20 114 0
-20 -114 0
20 140 0
-20 -140 0
20 162 0
-20 -162 0
20 198 0
-20 -198 0
21 23 0
-21 -23 0
21 56 0
-21 -56 0
21 68 0
-21 -68 0
21 97 0
-21 -97 0
21 130 0
-21 -130 0
21 163 0
-21 -163 0
22 29 0
-22 -29 0
22 45 0
-22 -45 0
22 82 0
-22 -82 0
22 88 0
-22 -88 0
22 92 0
-22 -92 0
22 153 0
-22 -153 0
22 156 0
-22 -156 0
22 161 0
-22 -161 0
23 28 0
-23 -28 0
23 32 0
-23 -32 0
23 37 0
-23 -37 0
23 90 0
-23 -90 0
23 98 0
-23 -98 0
23 112 0
-23 -112 0
23 126 0
-23 -126 0
23 128 0
-23 -128 0
24 73 0
-24 -73 0
24 75 0
-24 -75 0
24 111 0
-24 -111 0
24 192 0
-24 -192 0
25 75 0
-25 -75 0
25 148 0
-25 -148 0
25 163 0
-25 -163 0
25 190 0
-25 -190 0
26 55 0
-26 -55 0
26 68 0
-26 -68 0
26 74 0
-26 -74 0
26 107 0
-26 -107 0
26 151 0
-26 -151 0
26 158 0
-26 -158 0
26 197 0
-26 -197 0
27 45 0
-27 -45 0
27 56 0
-27 -56 0
27 74 0
-27 -74 0
27 96 0
-27 -96 0
27 173 0
-27 -173 0
27 184 0
-27 -184 0
28 82 0
-28 -82 0
28 89 0
-28 -89 0
28 92 0
-28 -92 0
28 119 0
-28 -119 0
28 137 0
-28 -137 0
28 147 0
-28 -147 0
29 160 0
-29 -160 0
29 180 0
-29 -180 0
30 48 0
-30 -48 0
30 132 0
-30 -132 0
30 186 0
-30 -186 0
30 197 0
-30 -197 0
31 90 0
-31 -90 0
31 157 0
-31 -157 0
31 168 0
-31 -168 0
31 172 0
-31 -172 0
32 130 0
-32 -130 0
32 138 0
-32 -138 0
33 37 0
-33 -37 0
33 52 0
-33 -52 0
33 57 0
-33 -57 0
33 61 0
-33 -61 0
33 86 0
-33 -86 0
33 101 0
-33 -101 0
33 106 0
-33 -106 0
33 120 0
-33 -120 0
33 124 0
-33 -124 0
33 135 0
-33 -135 0
33 145 0
-33 -145 0
34 37 0
-34 -37 0
34 43 0
-34 -43 0
34 86 0
-34 -86 0
34 96 0
-34 -96 0
34 113 0
-34 -113 0
34 167 0
-34 -167 0
34 177 0
-34 -177 0
35 36 0
-35 -36 0
35 60 0
-35 -60 0
35 140 0
-35 -140 0
35 149 0
-35 -149 0
35 154 0
-35 -154 0
35 181 0
-35 -181 0
36 50 0
-36 -50 0
36 52 0
-36 -52 0
36 70 0
-36 -70 0
36 71 0
-36 -71 0
36 117 0
-36 -117 0
36 151 0
-36 -151 0
36 160 0
-36 -160 0
36 177 0
-36 -177 0
36 181 0
-36 -181 0
37 145 0
-37 -145 0
37 165 0
-37 -165 0
37 168 0
-37 -168 0
37 192 0
-37 -192 0
38 43 0
-38 -43 0
38 109 0
-38 -109 0
38 119 0
-38 -119 0
39 46 0
-39 -46 0
39 62 0
-39 -62 0
39 85 0
-39 -85 0
39 113 0
-39 -113 0
39 163 0
-39 -163 0
40 45 0
-40 -45 0
40 74 0
-40 -74 0
40 106 0
-40 -106 0
40 126 0
-40 -126 0
40 144 0
-40 -144 0
40 163 0
-40 -163 0
41 63 0
-41 -63 0
41 114 0
-41 -114 0
41 128 0
-41 -128 0
41 140 0
-41 -140 0
41 147 0
-41 -147 0
41 188 0
-41 -188 0
42 64 0
-42 -64 0
42 65 0
-42 -65 0
42 73 0
-42 -73 0
42 124 0
-42 -124 0
42 136 0
-42 -136 0
42 191 0
-42 -191 0
43 56 0
-43 -56 0
43 72 0
-43 -72 0
43 86 0
-43 -86 0
43 92 0
-43 -92 0
43 105 0
-43 -105 0
44 93 0
-44 -93 0
44 108 0
-44 -108 0
44 171 0
-44 -171 0
45 51 0
-45 -51 0
45 57 0
-45 -57 0
45 171 0
-45 -171 0
45 177 0
-45 -177 0
45 183 0
-45 -183 0
46 111 0
-46 -111 0
46 140 0
-46 -140 0
46 195 0
-46 -195 0
47 56 0
-47 -56 0
47 68 0
-47 -68 0
47 102 0
-47 -102 0
47 123 0
-47 -123 0
47 164 0
-47 -164 0
47 179 0
-47 -179 0
47 196 0
-47 -196 0
47 197 0
-47 -197 0
48 65 0
-48 -65 0
48 71 0
-48 -71 0
48 110 0
-48 -110 0
48 114 0
-48 -114 0
48 115 0
-48 -115 0
48 136 0
-48 -136 0
48 190 0
-48 -190 0
48 195 0
-48 -195 0
49 58 0
-49 -58 0
49 88 0
-49 -88 0
49 119 0
-49 -119 0
49 134 0
-49 -134 0
49 178 0
-49 -178 0
50 100 0
-50 -100 0
50 111 0
-50 -111 0
50 141 0
-50 -141 0
50 155 0
-50 -155 0
50 157 0
-50 -157 0
51 80 0
-51 -80 0
51 138 0
-51 -138 0
51 159 0
-51 -159 0
51 170 0
-51 -170 0
51 179 0
-51 -179 0
52 72 0
-52 -72 0
52 124 0
-52 -124 0
52 134 0
-52 -134 0
53 82 0
-53 -82 0
53 99 0
-53 -99 0
53 126 0
-53 -126 0
53 148 0
-53 -148 0
53 186 0
-53 -186 0
54 64 0
-54 -64 0
54 97 0
-54 -97 0
54 130 0
-54 -130 0
54 157 0
-54 -157 0
54 180 0
-54 -180 0
54 184 0
-54 -184 0
54 198 0
-54 -198 0
54 199 0
-54 -199 0
55 87 0
-55 -87 0
55 109 0
-55 -109 0
55 115 0
-55 -115 0
55 123 0
-55 -123 0
55 156 0
-55 -156 0
55 166 0
-55 -166 0
55 169 0
-55 -169 0
55 193 0
-55 -193 0
56 93 0
-56 -93 0
56 94 0
-56 -94 0
56 139 0
-56 -139 0
56 171 0
-56 -171 0
57 135 0
-57 -135 0
57 145 0
-57 -145 0
57 170 0
-57 -170 0
57 185 0
-57 -185 0
57 196 0
-57 -196 0
58 71 0
-58 -71 0
58 126 0
-58 -126 0
58 184 0
-58 -184 0
58 187 0
-58 -187 0
59 81 0
-59 -81 0
59 88 0
-59 -88 0
59 120 0
-59 -120 0
59 182 0
-59 -182 0
59 199 0
-59 -199 0
60 77 0
-60 -77 0
60 90 0
-60 -90 0
60 109 0
-60 -109 0
60 200 0
-60 -200 0
61 119 0
-61 -119 0
61 125 0
-61 -125 0
61 153 0
-61 -153 0
61 163 0
-61 -163 0
61 200 0
-61 -200 0
62 102 0
-62 -102 0
62 118 0
-62 -118 0
62 134 0
-62 -134 0
62 150 0
-62 -150 0
62 184 0
-62 -184 0
62 199 0
-62 -199 0
64 68 0
-64 -68 0
64 108 0
-64 -108 0
65 128 0
-65 -128 0
65 146 0
-65 -146 0
65 180 0
-65 -180 0
66 90 0
-66 -90 0
66 108 0
-66 -108 0
66 196 0
-66 -196 0
66 197 0
-66 -197 0
67 77 0
-67 -77 0
67 89 0
-67 -89 0
67 118 0
-67 -118 0
67 121 0
-67 -121 0
67 145 0
-67 -145 0
67 161 0
-67 -161 0
67 169 0
-67 -169 0
67 172 0
-67 -172 0
68 110 0
-68 -110 0
68 159 0
-68 -159 0
69 78 0
-69 -78 0
69 111 0
-69 -111 0
69 121 0
-69 -121 0
69 137 0
-69 -137 0
70 107 0
-70 -107 0
70 127 0
-70 -127 0
70 149 0
-70 -149 0
70 152 0
-70 -152 0
70 158 0
-70 -158 0
70 164 0
-70 -164 0
71 147 0
-71 -147 0
71 164 0
-71 -164 0
71 174 0
-71 -174 0
71 182 0
-71 -182 0
72 76 0
-72 -76 0
72 91 0
-72 -91 0
72 94 0
-72 -94 0
72 172 0
-72 -172 0
72 187 0
-72 -187 0
73 104 0
-73 -104 0
73 116 0
-73 -116 0
73 118 0
-73 -118 0
73 128 0
-73 -128 0
73 141 0
-73 -141 0
74 103 0
-74 -103 0
74 120 0
-74 -120 0
75 112 0
-75 -112 0
75 161 0
-75 -161 0
75 189 0
-75 -189 0
76 79 0
-76 -79 0
76 163 0
-76 -163 0
76 194 0
-76 -194 0
77 79 0
-77 -79 0
77 95 0
-77 -95 0
77 126 0
-77 -126 0
77 130 0
-77 -130 0
77 142 0
-77 -142 0
77 166 0
-77 -166 0
77 176 0
-77 -176 0
78 83 0
-78 -83 0
78 84 0
-78 -84 0
78 88 0
-78 -88 0
78 99 0
-78 -99 0
78 147 0
-78 -147 0
78 172 0
-78 -172 0
78 174 0
-78 -174 0
78 191 0
-78 -191 0
79 96 0
-79 -96 0
79 97 0
-79 -97 0
79 110 0
-79 -110 0
79 123 0
-79 -123 0
79 124 0
-79 -124 0
79 142 0
-79 -142 0
79 173 0
-79 -173 0
79 176 0
-79 -176 0
79 179 0
-79 -179 0
80 91 0
-80 -91 0
80 135 0
-80 -135 0
80 143 0
-80 -143 0
80 145 0
-80 -145 0
80 147 0
-80 -147 0
80 153 0
-80 -153 0
80 166 0
-80 -166 0
80 190 0
-80 -190 0
80 199 0
-80 -199 0
81 84 0
-81 -84 0
81 95 0
-81 -95 0
81 115 0
-81 -115 0
81 188 0
-81 -188 0
81 198 0
-81 -198 0
82 92 0
-82 -92 0
82 104 0
-82 -104 0
82 109 0
-82 -109 0
82 122 0
-82 -122 0
82 132 0
-82 -132 0
82 177 0
-82 -177 0
82 193 0
-82 -193 0
82 197 0
-82 -197 0
83 90 0
-83 -90 0
83 104 0
-83 -104 0
83 118 0
-83 -118 0
83 151 0
-83 -151 0
83 185 0
-83 -185 0
84 122 0
-84 -122 0
84 129 0
-84 -129 0
84 158 0
-84 -158 0
84 159 0
-84 -159 0
84 164 0
-84 -164 0
84 186 0
-84 -186 0
84 189 0
-84 -189 0
85 96 0
-85 -96 0
85 122 0
-85 -122 0
85 152 0
-85 -152 0
85 160 0
-85 -160 0
85 172 0
-85 -172 0
85 193 0
-85 -193 0
86 103 0
-86 -103 0
86 129 0
-86 -129 0
87 95 0
-87 -95 0
87 98 0
-87 -98 0
87 113 0
-87 -113 0
87 172 0
-87 -172 0
88 156 0
-88 -156 0
88 179 0
-88 -179 0
88 187 0
-88 -187 0
89 97 0
-89 -97 0
89 105 0
-89 -105 0
89 117 0
-89 -117 0
89 143 0
-89 -143 0
89 148 0
-89 -148 0
89 157 0
-89 -157 0
90 113 0
-90 -113 0
90 157 0
-90 -157 0
90 185 0
-90 -185 0
91 121 0
-91 -121 0
91 198 0
-91 -198 0
92 118 0
-92 -118 0
93 97 0
-93 -97 0
93 100 0
-93 -100 0
93 108 0
-93 -108 0
93 142 0
-93 -142 0
94 109 0
-94 -109 0
94 152 0
-94 -152 0
94 188 0
-94 -188 0
94 190 0
-94 -190 0
95 104 0
-95 -104 0
96 112 0
-96 -112 0
96 142 0
-96 -142 0
96 167 0
-96 -167 0
96 174 0
-96 -174 0
97 103 0
-97 -103 0
97 109 0
-97 -109 0
97 144 0
-97 -144 0
97 162 0
-97 -162 0
97 197 0
-97 -197 0
98 148 0
-98 -148 0
98 162 0
-98 -162 0
99 142 0
-99 -142 0
100 194 0
-100 -194 0
101 196 0
-101 -196 0
102 169 0
-102 -169 0
102 179 0
-102 -179 0
102 192 0
-102 -192 0
103 116 0
-103 -116 0
103 153 0
-103 -153 0
103 186 0
-103 -186 0
104 173 0
-104 -173 0
104 187 0
-104 -187 0
105 107 0
-105 -107 0
105 116 0
-105 -116 0
105 171 0
-105 -171 0
106 119 0
-106 -119 0
106 121 0
-106 -121 0
106 185 0
-106 -185 0
107 130 0
-107 -130 0
107 134 0
-107 -134 0
107 150 0
-107 -150 0
107 200 0
-107 -200 0
108 116 0
-108 -116 0
108 129 0
-108 -129 0
108 131 0
-108 -131 0
108 166 0
-108 -166 0
108 170 0
-108 -170 0
108 183 0
-108 -183 0
108 197 0
-108 -197 0
109 110 0
-109 -110 0
109 111 0
-109 -111 0
109 112 0
-109 -112 0
109 113 0
-109 -113 0
109 125 0
-109 -125 0
109 138 0
-109 -138 0
109 143 0
-109 -143 0
109 156 0
-109 -156 0
109 164 0
-109 -164 0
109 186 0
-109 -186 0
109 187 0
-109 -187 0
109 196 0
-109 -196 0
110 119 0
-110 -119 0
110 166 0
-110 -166 0
110 179 0
-110 -179 0
111 116 0
-111 -116 0
112 148 0
-112 -148 0
112 191 0
-112 -191 0
113 130 0
-113 -130 0
113 147 0
-113 -147 0
113 171 0
-113 -171 0
113 196 0
-113 -196 0
114 152 0
-114 -152 0
115 132 0
-115 -132 0
115 165 0
-115 -165 0
116 148 0
-116 -148 0
116 155 0
-116 -155 0
116 174 0
-116 -174 0
116 193 0
-116 -193 0
117 144 0
-117 -144 0
117 153 0
-117 -153 0
117 162 0
-117 -162 0
117 194 0
-117 -194 0
117 195 0
-117 -195 0
117 199 0
-117 -199 0
118 130 0
-118 -130 0
118 177 0
-118 -177 0
118 181 0
-118 -181 0
119 141 0
-119 -141 0
119 163 0
-119 -163 0
119 180 0
-119 -180 0
119 184 0
-119 -184 0
119 188 0
-119 -188 0
120 122 0
-120 -122 0
120 129 0
-120 -129 0
120 147 0
-120 -147 0
120 153 0
-120 -153 0
120 170 0
-120 -170 0
120 196 0
-120 -196 0
121 157 0
-121 -157 0
121 176 0
-121 -176 0
121 191 0
-121 -191 0
121 192 0
-121 -192 0
121 194 0
-121 -194 0
122 141 0
-122 -141 0
123 159 0
-123 -159 0
124 150 0
-124 -150 0
125 153 0
-125 -153 0
125 169 0
-125 -169 0
125 194 0
-125 -194 0
127 137 0
-127 -137 0
128 157 0
-128 -157 0
129 137 0
-129 -137 0
129 185 0
-129 -185 0
130 169 0
-130 -169 0
130 189 0
-130 -189 0
130 194 0
-130 -194 0
131 152 0
-131 -152 0
131 180 0
-131 -180 0
131 183 0
-131 -183 0
131 193 0
-131 -193 0
132 166 0
-132 -166 0
133 172 0
-133 -172 0
133 176 0
-133 -176 0
133 200 0
-133 -200 0
134 139 0
-134 -139 0
134 173 0
-134 -173 0
134 196 0
-134 -196 0
135 172 0
-135 -172 0
135 191 0
-135 -191 0
136 146 0
-136 -146 0
136 163 0
-136 -163 0
137 146 0
-137 -146 0
137 159 0
-137 -159 0
137 171 0
-137 -171 0
137 185 0
-137 -185 0
137 189 0
-137 -189 0
138 153 0
-138 -153 0
138 156 0
-138 -156 0
138 183 0
-138 -183 0
138 188 0
-138 -188 0
139 156 0
-139 -156 0
139 168 0
-139 -168 0
140 151 0
-140 -151 0
140 183 0
-140 -183 0
141 150 0
-141 -150 0
141 160 0
-141 -160 0
141 188 0
-141 -188 0
141 195 0
-141 -195 0
143 167 0
-143 -167 0
143 191 0
-143 -191 0
144 149 0
-144 -149 0
144 184 0
-144 -184 0
145 155 0
-145 -155 0
145 178 0
-145 -178 0
146 186 0
-146 -186 0
147 186 0
-147 -186 0
148 181 0
-148 -181 0
149 151 0
-149 -151 0
150 198 0
-150 -198 0
151 154 0
-151 -154 0
152 180 0
-152 -180 0
152 196 0
-152 -196 0
153 154 0
-153 -154 0
153 180 0
-153 -180 0
153 192 0
-153 -192 0
155 159 0
-155 -159 0
155 185 0
-155 -185 0
156 174 0
-156 -174 0
156 179 0
-156 -179 0
157 167 0
-157 -167 0
157 170 0
-157 -170 0
157 198 0
-157 -198 0
158 171 0
-158 -171 0
158 173 0
-158 -173 0
158 181 0
-158 -181 0
158 196 0
-158 -196 0
159 176 0
-159 -176 0
159 187 0
-159 -187 0
159 188 0
-159 -188 0
160 168 0
-160 -168 0
160 174 0
-160 -174 0
160 185 0
-160 -185 0
162 166 0
-162 -166 0
162 179 0
-162 -179 0
162 183 0
-162 -183 0
164 167 0
-164 -167 0
165 185 0
-165 -185 0
166 183 0
-166 -183 0
167 185 0
-167 -185 0
167 194 0
-167 -194 0
169 178 0
-169 -178 0
170 194 0
-170 -194 0
174 198 0
-174 -198 0
175 178 0
-175 -178 0
176 188 0
-176 -188 0
177 199 0
-177 -199 0
179 197 0
-179 -197 0
180 188 0
-180 -188 0
180 191 0
-180 -191 0
180 198 0
-180 -198 0
181 186 0
-181 -186 0
182 195 0
-182 -195 0
182 197 0
-182 -197 0
182 199 0
-182 -199 0
186 196 0
-186 -196 0
187 200 0
-187 -200 0
192 200 0
-192 -200 0
